c User generated cnf file
p cnf 10 47
1 1 -8 0 
8 -4 3 0 
1 -1 8 0 
2 -3 9 0 
10 1 -4 0 
4 -3 6 0 
5 -9 4 0 
3 -4 7 0 
7 4 -2 0 
3 -5 4 0 
2 -2 4 0 
6 6 -2 0 
2 -10 3 0 
3 8 -7 0 
3 -9 7 0 
5 -4 10 0 
6 6 -7 0 
10 -8 2 0 
1 -10 5 0 
7 -1 7 0 
3 4 -9 0 
3 -10 7 0 
5 -10 4 0 
3 -8 3 0 
6 2 -5 0 
5 -7 4 0 
6 2 -6 0 
6 9 -9 0 
9 -5 8 0 
8 8 -9 0 
4 -10 5 0 
3 -1 3 0 
6 -10 8 0 
2 -2 9 0 
1 6 -8 0 
4 4 -5 0 
2 10 -7 0 
6 -8 7 0 
5 -3 7 0 
8 -2 6 0 
9 -7 6 0 
2 -10 7 0 
5 6 -10 0 
7 -10 4 0 
7 8 -9 0 
2 -6 7 0 
5 4 -6 0 
